
Gurobi 11.0.0 (linux64) logging started Tue Sep 17 03:36:21 2024

Set parameter LogFile to value "gurobi.log"
Set parameter InfUnbdInfo to value 1
Gurobi Optimizer version 11.0.0 build v11.0.0rc2 (linux64 - "Ubuntu 22.04.4 LTS")

CPU model: AMD EPYC 7V13 64-Core Processor, instruction set [SSE2|AVX|AVX2]
Thread count: 128 physical cores, 128 logical processors, using up to 32 threads

Optimize a model with 42 rows, 210 columns and 145 nonzeros
Model fingerprint: 0x9969bbe7
Model has 162 quadratic constraints
Model has 4 general constraints
Variable types: 51 continuous, 159 integer (0 binary)
Coefficient statistics:
  Matrix range     [1e+00, 2e+05]
  QMatrix range    [1e+00, 2e+05]
  QLMatrix range   [1e+00, 2e+05]
  Objective range  [1e+00, 1e+00]
  Bounds range     [1e+00, 3e+10]
  RHS range        [1e+00, 7e+03]
  QRHS range       [1e+00, 2e+06]
Warning: Model contains large bounds
         Consider reformulating model or setting NumericFocus parameter
         to avoid numerical issues.
Using branch priorities (all 0).
Presolve added 71 rows and 80 columns
Presolve time: 0.01s
Presolved: 592 rows, 404 columns, 2624 nonzeros
Presolved model has 56 SOS constraint(s)
Presolved model has 83 bilinear constraint(s)
Warning: Model contains variables with very large bounds participating
         in product terms.
         Presolve was not able to compute smaller bounds for these variables.
         Consider bounding these variables or reformulating the model.


Solving non-convex MIQCP

Variable types: 153 continuous, 251 integer (96 binary)

Root relaxation: objective 4.730000e+02, 214 iterations, 0.00 seconds (0.00 work units)

    Nodes    |    Current Node    |     Objective Bounds      |     Work
 Expl Unexpl |  Obj  Depth IntInf | Incumbent    BestBd   Gap | It/Node Time

     0     0  473.00000    0   79          -  473.00000      -     -    0s
     0     0  476.65013    0  147          -  476.65013      -     -    0s
H    0     0                    2.560224e+10  476.65013   100%     -    0s
H    0     0                    2.560224e+10  476.65013   100%     -    0s
     0     0 1269.40173    0  156 2.5602e+10 1269.40173   100%     -    0s
     0     0 1269.40173    0  159 2.5602e+10 1269.40173   100%     -    0s
     0     0 1269.40173    0  163 2.5602e+10 1269.40173   100%     -    0s
H    0     0                    6.401281e+09 1326.54027   100%     -    0s
     0     0 1332.13692    0  127 6.4013e+09 1332.13692   100%     -    0s
H    0     0                    1280850.0000 1332.13692   100%     -    0s
     0     0 1333.07300    0  141 1280850.00 1333.07300   100%     -    0s
     0     0 1606.09696    0  104 1280850.00 1606.09696   100%     -    0s
H    0     0                    492650.00000 1740.50893   100%     -    0s
     0     0 1740.50893    0   86 492650.000 1740.50893   100%     -    0s
H    0     0                    94650.000000 1740.50893  98.2%     -    0s
     0     0 1771.58098    0  122 94650.0000 1771.58098  98.1%     -    0s
H    0     0                    11897.499285 3371.60105  71.7%     -    0s
     0     0 9690.30178    0  118 11897.4993 9690.30178  18.6%     -    0s
     0     0 10095.2553    0  129 11897.4993 10095.2553  15.1%     -    0s
     0     0 10102.4677    0  122 11897.4993 10102.4677  15.1%     -    0s
     0     0 10108.3267    0   77 11897.4993 10108.3267  15.0%     -    0s
     0     0 10108.3734    0  108 11897.4993 10108.3734  15.0%     -    0s
     0     0 10120.0146    0  104 11897.4993 10120.0146  14.9%     -    0s
     0     0 10120.0146    0   67 11897.4993 10120.0146  14.9%     -    0s
     0     0 10120.0146    0   72 11897.4993 10120.0146  14.9%     -    0s
     0     0 10126.4854    0   72 11897.4993 10126.4854  14.9%     -    0s
     0     0 10131.2439    0   76 11897.4993 10131.2439  14.8%     -    0s
     0     0 10140.6070    0   68 11897.4993 10140.6070  14.8%     -    0s
     0     0 10140.8340    0   68 11897.4993 10140.8340  14.8%     -    0s
     0     0 10141.6503    0   79 11897.4993 10141.6503  14.8%     -    0s
     0     0 10144.2925    0   74 11897.4993 10144.2925  14.7%     -    0s
H    0     0                    11547.499285 10144.2925  12.2%     -    0s
     0     0 10144.2925    0   73 11547.4993 10144.2925  12.2%     -    0s
     0     0 10146.2779    0   75 11547.4993 10146.2779  12.1%     -    0s
     0     0 10153.5458    0   70 11547.4993 10153.5458  12.1%     -    0s
     0     0 10154.0554    0   64 11547.4993 10154.0554  12.1%     -    0s
     0     0 10170.9219    0   91 11547.4993 10170.9219  11.9%     -    0s
     0     0 10201.9395    0   91 11547.4993 10201.9395  11.7%     -    0s
     0     0 10228.1647    0   90 11547.4993 10228.1647  11.4%     -    0s
     0     0 10240.1708    0   86 11547.4993 10240.1708  11.3%     -    0s
     0     0 10293.2548    0   90 11547.4993 10293.2548  10.9%     -    0s
     0     0 10343.3830    0   87 11547.4993 10343.3830  10.4%     -    0s
     0     0 10345.0548    0   87 11547.4993 10345.0548  10.4%     -    0s
     0     0 10358.3597    0   91 11547.4993 10358.3597  10.3%     -    0s
     0     0 10371.0828    0   95 11547.4993 10371.0828  10.2%     -    0s
     0     0 10420.7104    0   89 11547.4993 10420.7104  9.76%     -    0s
     0     0 10426.6855    0   81 11547.4993 10426.6855  9.71%     -    0s
     0     0 10434.1846    0   90 11547.4993 10434.1846  9.64%     -    0s
     0     0 10454.7540    0   90 11547.4993 10454.7540  9.46%     -    0s
     0     0 10468.1333    0   90 11547.4993 10468.1333  9.35%     -    0s
     0     0 10499.3270    0   90 11547.4993 10499.3270  9.08%     -    0s
     0     2 10499.3270    0   83 11547.4993 10499.3270  9.08%     -    1s

Cutting planes:
  Gomory: 9
  Implied bound: 6
  MIR: 49
  Flow cover: 3
  RLT: 28
  Relax-and-lift: 3

Explored 1280 nodes (8959 simplex iterations) in 1.71 seconds (0.20 work units)
Thread count was 32 (of 128 available processors)

Solution count 8: 11547.5 11897.5 94650 ... 2.56022e+10

Optimal solution found (tolerance 1.00e-10)
Warning: max constraint violation (7.6333e-04) exceeds tolerance
Warning: max general constraint violation (7.6333e-04) exceeds tolerance
Best objective 1.154749928454e+04, best bound 1.154749928454e+04, gap 0.0000%
